; Copyright (c) 2026 The RIINA Authors. All rights reserved.
; Copyright (c) 2026 The RIINA Authors.
; Auto-generated from 02_FORMAL/coq/effects/EffectGate.v (1 assertions)
; Generated by scripts/generate-full-stack.py
; Module: EffectGate

(set-logic ALL)
(set-option :produce-models true)

; is_gate (matches Coq: Definition is_gate)
(define-fun is_gate ((eff effect) (e_gate expr)) Prop
  true)

; gate_enforcement (matches Coq: Theorem gate_enforcement)
(assert (= true true)) ; gate_enforcement [untranslatable]

; Verify all assertions are satisfiable
(check-sat)
(exit)
